language ESSENCE' 1.0
$ minion Nodes: 2
$ minion TotalTime: 0.00071
$ Savile Row TotalTime: 0.151
letting x_RelationAsSet_ExplicitVarSize_tuple2_tuple2 be [3, 3]
letting x_RelationAsSet_ExplicitVarSize_tuple2_tuple1 be [1, 2]
letting x_RelationAsSet_ExplicitVarSize_tuple1 be [0, 1]
